************************************************************************
file with basedata            : md373_.bas
initial value random generator: 1403590613
************************************************************************
projects                      :  1
jobs (incl. supersource/sink ):  22
horizon                       :  167
RESOURCES
  - renewable                 :  2   R
  - nonrenewable              :  2   N
  - doubly constrained        :  0   D
************************************************************************
PROJECT INFORMATION:
pronr.  #jobs rel.date duedate tardcost  MPM-Time
    1     20      0       26        7       26
************************************************************************
PRECEDENCE RELATIONS:
jobnr.    #modes  #successors   successors
   1        1          3           2   3   4
   2        3          2           5   6
   3        3          3           7   9  16
   4        3          3           8  10  18
   5        3          3          13  14  15
   6        3          1           8
   7        3          2          11  12
   8        3          3          11  15  20
   9        3          3          15  17  18
  10        3          3          12  14  16
  11        3          1          14
  12        3          1          19
  13        3          2          17  18
  14        3          1          17
  15        3          1          21
  16        3          2          20  21
  17        3          2          19  21
  18        3          1          20
  19        3          1          22
  20        3          1          22
  21        3          1          22
  22        1          0        
************************************************************************
REQUESTS/DURATIONS:
jobnr. mode duration  R 1  R 2  N 1  N 2
------------------------------------------------------------------------
  1      1     0       0    0    0    0
  2      1     1       9    8    3    6
         2     7       7    7    3    5
         3     8       5    7    3    5
  3      1     1       4    8   10    7
         2     6       4    8    7    6
         3     9       3    7    6    3
  4      1     1       7    2    6    9
         2     5       4    2    4    7
         3    10       4    2    4    4
  5      1     2       3    5    4    5
         2     4       2    4    3    4
         3     9       2    4    2    4
  6      1     6       6    3    7    5
         2    10       6    3    5    4
         3    10       3    3    6    4
  7      1     2       4    6    8   10
         2     3       1    6    6    5
         3     3       1    5    6    6
  8      1     3       5    4    3   10
         2     8       4    4    2    8
         3     9       4    3    2    6
  9      1     4       8    8    9    7
         2     7       3    7    6    5
         3     7       5    7    6    3
 10      1     6      10    3    8    9
         2     8       8    3    7    8
         3     9       4    1    6    8
 11      1     1       6    7    8    6
         2     3       3    7    4    6
         3     8       3    5    4    5
 12      1     4       3    8   10    8
         2     5       2    7    7    7
         3    10       1    6    2    7
 13      1     2       5    4    6    5
         2     5       4    3    5    3
         3     9       4    1    3    2
 14      1     6       7    8    9   10
         2     6       6   10    9    7
         3     9       3    8    9    6
 15      1     2       9    6    6    9
         2     5       8    3    3    9
         3     7       6    1    2    8
 16      1     1       3    7   10    8
         2     5       2    7    7    4
         3     9       1    6    7    4
 17      1     6       7    7    3    4
         2     6       5    7    4    5
         3     7       5    7    1    4
 18      1     1       7    9    5    9
         2     6       6    6    4    8
         3    10       6    5    4    8
 19      1     2       9    7    8    4
         2     3       8    7    7    4
         3     5       8    7    4    3
 20      1     4       7    4    4    6
         2    10       3    4    4    4
         3    10       4    4    3    4
 21      1     3       3    8    7    3
         2     9       3    8    4    1
         3     9       2    8    5    1
 22      1     0       0    0    0    0
************************************************************************
RESOURCEAVAILABILITIES:
  R 1  R 2  N 1  N 2
   14   12  122  129
************************************************************************
MAXIMAL LAGS:
from  to  type  delay
    1   22   ES      0
    1    2   ES      0
    2   22   ES      0
    1    3   ES      0
    3   22   ES      0
    1    4   ES      0
    4   22   ES      0
    1    5   ES      0
    5   22   ES      0
    1    6   ES      0
    6   22   ES      0
    1    7   ES      0
    7   22   ES      0
    1    8   ES      0
    8   22   ES      0
    1    9   ES      0
    9   22   ES      0
    1   10   ES      0
   10   22   ES      0
    1   11   ES      0
   11   22   ES      0
    1   12   ES      0
   12   22   ES      0
    1   13   ES      0
   13   22   ES      0
    1   14   ES      0
   14   22   ES      0
    1   15   ES      0
   15   22   ES      0
    1   16   ES      0
   16   22   ES      0
    1   17   ES      0
   17   22   ES      0
    1   18   ES      0
   18   22   ES      0
    1   19   ES      0
   19   22   ES      0
    1   20   ES      0
   20   22   ES      0
    1   21   ES      0
   21   22   ES      0
    1   22   ES      0
    2    5   SS    -10
    2    5   SE      1
    2    5   ES     -2
    2    5   EE    -11
    2    6   SS     -4
    2    6   SE     -4
    2    6   ES     12
    2    6   EE     -9
    3    7   SS     -1
    3    7   SE     -7
    3    7   ES      1
    3    7   EE     -4
    3    9   SS     -3
    3    9   SE     -1
    3    9   ES      9
    3    9   EE      9
    3   16   SS      4
    3   16   SE     11
    3   16   ES      8
    3   16   EE     -8
    4    8   SS      7
    4    8   SE      1
    4    8   ES     11
    4    8   EE      7
    4   10   SS     -3
    4   10   SE     11
    4   10   ES     -1
    4   10   EE     -4
    4   18   SS    -10
    4   18   SE      9
    4   18   ES      9
    4   18   EE      6
    5   13   SS     -9
    5   13   SE     -5
    5   13   ES     11
    5   13   EE      2
    5   14   SS      5
    5   14   SE    -11
    5   14   ES     -4
    5   14   EE      7
    5   15   SS      4
    5   15   SE      3
    5   15   ES      1
    5   15   EE     -8
    6    8   SS    -12
    6    8   SE      7
    6    8   ES     -6
    6    8   EE      5
    7   11   SS     -6
    7   11   SE      2
    7   11   ES     -5
    7   11   EE      7
    7   12   SS      0
    7   12   SE     -2
    7   12   ES     11
    7   12   EE     -7
    8   11   SS     -3
    8   11   SE     -7
    8   11   ES      3
    8   11   EE      9
    8   15   SS      1
    8   15   SE    -12
    8   15   ES     10
    8   15   EE      3
    8   20   SS     -3
    8   20   SE      9
    8   20   ES      9
    8   20   EE     -9
    9   15   SS     -3
    9   15   SE      1
    9   15   ES     -4
    9   15   EE     12
    9   17   SS     -4
    9   17   SE    -12
    9   17   ES     -7
    9   17   EE      1
    9   18   SS     10
    9   18   SE     -9
    9   18   ES     -6
    9   18   EE     -1
   10   12   SS     -6
   10   12   SE     -3
   10   12   ES     -8
   10   12   EE     -2
   10   14   SS     -1
   10   14   SE     -2
   14   10   SE      0
   10   14   ES      0
   10   14   EE    -10
   10   16   SS      5
   10   16   SE     -6
   10   16   ES     -8
   10   16   EE      1
   11   14   SS     11
   11   14   SE     -8
   11   14   ES    -10
   11   14   EE     -6
   12   19   SS      5
   12   19   SE     -4
   12   19   ES     -9
   12   19   EE     10
   13   17   SS     -1
   13   17   SE     -1
   13   17   ES    -10
   13   17   EE    -12
   13   18   SS      6
   13   18   SE      9
   13   18   ES     -1
   13   18   EE     -4
   14   17   SS     -8
   14   17   SE      8
   14   17   ES     -1
   14   17   EE     12
   15   21   SS     -8
   15   21   SE      3
   15   21   ES     -2
   15   21   EE    -12
   16   20   SS     -1
   16   20   SE      0
   16   20   ES      5
   16   20   EE      4
   16   21   SS      8
   16   21   SE    -11
   16   21   ES      4
   16   21   EE     -4
   17   19   SS      8
   17   19   SE      4
   17   19   ES     -7
   17   19   EE     10
   17   21   SS    -12
   17   21   SE      2
   17   21   ES     -7
   17   21   EE      3
   18   20   SS    -10
   18   20   SE     -8
   18   20   ES      0
   18   20   EE     -6
************************************************************************
